results/res_prop_muc/res_Cimatti_mathsat_cores/QF_UF/PEQ013_size7.smt.smt2.out

real	3m51.634s
user	3m50.196s
sys	0m1.419s
