results/res_prop_muc/res_Cimatti_mathsat_cores/QF_UF/PEQ013_size7.smt.smt2.res
unsat
( _c0
  _c1
  _c100
  _c101
  _c102
  _c103
  _c104
  _c105
  _c106
  _c107
  _c1074
  _c108
  _c109
  _c110
  _c111
  _c1116
  _c1117
  _c112
  _c113
  _c114
  _c115
  _c1158
  _c1159
  _c116
  _c1160
  _c117
  _c118
  _c119
  _c120
  _c1200
  _c1201
  _c1202
  _c1203
  _c121
  _c122
  _c123
  _c124
  _c1242
  _c1243
  _c1244
  _c1245
  _c1246
  _c125
  _c126
  _c127
  _c128
  _c129
  _c1298
  _c1299
  _c130
  _c1300
  _c1301
  _c1302
  _c1303
  _c1304
  _c1305
  _c1306
  _c1307
  _c1308
  _c1309
  _c131
  _c1310
  _c1311
  _c1312
  _c1313
  _c1314
  _c1315
  _c1316
  _c1317
  _c1318
  _c1319
  _c132
  _c1320
  _c1321
  _c1322
  _c1323
  _c1324
  _c1325
  _c1326
  _c1327
  _c1328
  _c1329
  _c133
  _c1330
  _c1331
  _c1332
  _c1333
  _c1334
  _c1335
  _c1336
  _c1337
  _c1338
  _c1339
  _c134
  _c1340
  _c1341
  _c1342
  _c1343
  _c1344
  _c1345
  _c1346
  _c1347
  _c1348
  _c1349
  _c135
  _c1350
  _c1351
  _c1352
  _c1353
  _c1354
  _c1356
  _c1357
  _c1358
  _c1359
  _c136
  _c1360
  _c1361
  _c1362
  _c1363
  _c1364
  _c1365
  _c1366
  _c1367
  _c1368
  _c1369
  _c137
  _c1370
  _c1371
  _c1372
  _c1373
  _c1374
  _c1375
  _c1376
  _c1377
  _c1378
  _c1379
  _c138
  _c1380
  _c1381
  _c1382
  _c1383
  _c1384
  _c1385
  _c1386
  _c1387
  _c1388
  _c1389
  _c139
  _c1390
  _c1391
  _c1392
  _c1393
  _c1394
  _c1395
  _c1396
  _c1397
  _c1398
  _c1399
  _c140
  _c1400
  _c1401
  _c1402
  _c1404
  _c1405
  _c1406
  _c1407
  _c1408
  _c1409
  _c141
  _c1410
  _c1411
  _c1413
  _c1414
  _c1415
  _c1416
  _c1417
  _c1418
  _c1419
  _c142
  _c1420
  _c1421
  _c1422
  _c1423
  _c1424
  _c1425
  _c1426
  _c1427
  _c1428
  _c1429
  _c143
  _c1430
  _c1431
  _c1432
  _c1433
  _c1434
  _c1435
  _c1436
  _c1437
  _c1438
  _c1439
  _c144
  _c1440
  _c1441
  _c1442
  _c1443
  _c1444
  _c1445
  _c1446
  _c1447
  _c1448
  _c1449
  _c145
  _c1450
  _c1451
  _c1453
  _c1454
  _c1455
  _c1456
  _c1457
  _c1458
  _c146
  _c1461
  _c1462
  _c1463
  _c1464
  _c1465
  _c1466
  _c1467
  _c1468
  _c147
  _c1470
  _c1471
  _c1472
  _c1473
  _c1474
  _c1475
  _c1476
  _c1477
  _c1478
  _c1479
  _c148
  _c1480
  _c1481
  _c1482
  _c1483
  _c1484
  _c1485
  _c1486
  _c1487
  _c1488
  _c1489
  _c149
  _c1490
  _c1491
  _c1492
  _c1493
  _c1494
  _c1495
  _c1496
  _c1497
  _c1498
  _c1499
  _c150
  _c1500
  _c1502
  _c1503
  _c1504
  _c1505
  _c1506
  _c1507
  _c151
  _c1510
  _c1511
  _c1512
  _c1513
  _c1514
  _c1518
  _c1519
  _c152
  _c1520
  _c1521
  _c1522
  _c1524
  _c1525
  _c1527
  _c1528
  _c1529
  _c153
  _c1530
  _c1531
  _c1532
  _c1533
  _c1534
  _c1535
  _c1536
  _c1537
  _c1538
  _c1539
  _c154
  _c1540
  _c1541
  _c1542
  _c1543
  _c1544
  _c1545
  _c1546
  _c1547
  _c1548
  _c1549
  _c155
  _c1551
  _c1552
  _c1553
  _c1554
  _c1555
  _c1556
  _c1559
  _c156
  _c1560
  _c1561
  _c1562
  _c1563
  _c1567
  _c1568
  _c1569
  _c157
  _c1570
  _c1575
  _c1576
  _c1577
  _c1578
  _c1579
  _c158
  _c1580
  _c1581
  _c1582
  _c1584
  _c1585
  _c1586
  _c1587
  _c1588
  _c1589
  _c159
  _c1590
  _c1591
  _c1592
  _c1593
  _c1594
  _c1595
  _c1596
  _c1597
  _c1598
  _c160
  _c1600
  _c1601
  _c1602
  _c1603
  _c1604
  _c1605
  _c1608
  _c1609
  _c161
  _c1610
  _c1611
  _c1612
  _c1616
  _c1617
  _c1618
  _c1619
  _c162
  _c1624
  _c1625
  _c1626
  _c163
  _c1632
  _c1633
  _c1635
  _c1636
  _c1637
  _c1638
  _c164
  _c1641
  _c1643
  _c1644
  _c1645
  _c1646
  _c1647
  _c1648
  _c1649
  _c165
  _c1651
  _c1652
  _c1653
  _c1654
  _c1655
  _c1656
  _c1657
  _c1658
  _c1659
  _c166
  _c1660
  _c1661
  _c1662
  _c1663
  _c1664
  _c1665
  _c1666
  _c1667
  _c1668
  _c1669
  _c167
  _c1670
  _c1671
  _c1672
  _c1673
  _c1674
  _c1675
  _c1676
  _c1677
  _c1678
  _c1679
  _c168
  _c1680
  _c1681
  _c1682
  _c169
  _c1697
  _c1699
  _c170
  _c1700
  _c1701
  _c1702
  _c1703
  _c1704
  _c1705
  _c1706
  _c1707
  _c1709
  _c171
  _c1710
  _c1711
  _c1713
  _c1714
  _c1715
  _c1717
  _c1718
  _c172
  _c1720
  _c1721
  _c1722
  _c1723
  _c1724
  _c173
  _c1732
  _c1735
  _c1736
  _c1737
  _c1738
  _c1739
  _c174
  _c1740
  _c1741
  _c1742
  _c1743
  _c1744
  _c1745
  _c1746
  _c1747
  _c1749
  _c175
  _c1750
  _c1751
  _c1752
  _c1753
  _c1754
  _c1755
  _c1756
  _c1757
  _c1759
  _c176
  _c1760
  _c1761
  _c1762
  _c1763
  _c1764
  _c1765
  _c1766
  _c177
  _c178
  _c179
  _c1795
  _c1796
  _c1797
  _c1798
  _c1799
  _c180
  _c1801
  _c1802
  _c1803
  _c1804
  _c1805
  _c1806
  _c1807
  _c1808
  _c181
  _c182
  _c183
  _c1830
  _c1831
  _c1832
  _c1835
  _c1836
  _c1837
  _c1838
  _c1839
  _c184
  _c1840
  _c1841
  _c1842
  _c1843
  _c1844
  _c1845
  _c1846
  _c1847
  _c1849
  _c185
  _c1850
  _c186
  _c187
  _c188
  _c189
  _c190
  _c191
  _c192
  _c1928
  _c1929
  _c193
  _c1930
  _c1931
  _c1932
  _c1933
  _c1934
  _c194
  _c195
  _c196
  _c197
  _c198
  _c1984
  _c1987
  _c1988
  _c1989
  _c199
  _c1990
  _c1991
  _c1993
  _c1994
  _c1995
  _c1996
  _c1997
  _c1998
  _c1999
  _c200
  _c2001
  _c2003
  _c2006
  _c2007
  _c2008
  _c2009
  _c201
  _c2010
  _c2011
  _c2013
  _c2014
  _c2015
  _c2016
  _c2017
  _c2018
  _c202
  _c2020
  _c2021
  _c2022
  _c2023
  _c2025
  _c2028
  _c2029
  _c203
  _c2032
  _c204
  _c2040
  _c2041
  _c2043
  _c2044
  _c2045
  _c2046
  _c2047
  _c2048
  _c2049
  _c205
  _c2050
  _c2051
  _c2052
  _c2053
  _c2054
  _c2055
  _c2056
  _c2057
  _c2058
  _c2059
  _c206
  _c2060
  _c2061
  _c2062
  _c207
  _c208
  _c209
  _c210
  _c211
  _c212
  _c213
  _c214
  _c215
  _c216
  _c217
  _c218
  _c219
  _c220
  _c221
  _c222
  _c223
  _c224
  _c225
  _c226
  _c227
  _c228
  _c229
  _c230
  _c231
  _c232
  _c233
  _c234
  _c235
  _c236
  _c237
  _c238
  _c239
  _c240
  _c241
  _c242
  _c243
  _c244
  _c245
  _c246
  _c247
  _c248
  _c249
  _c250
  _c251
  _c252
  _c253
  _c254
  _c255
  _c256
  _c257
  _c258
  _c259
  _c260
  _c261
  _c262
  _c263
  _c264
  _c265
  _c266
  _c267
  _c268
  _c269
  _c270
  _c271
  _c272
  _c273
  _c274
  _c275
  _c276
  _c277
  _c278
  _c279
  _c280
  _c281
  _c282
  _c283
  _c284
  _c285
  _c286
  _c287
  _c288
  _c289
  _c290
  _c291
  _c292
  _c293
  _c294
  _c295
  _c296
  _c297
  _c298
  _c299
  _c300
  _c301
  _c302
  _c303
  _c304
  _c305
  _c306
  _c307
  _c308
  _c309
  _c310
  _c311
  _c312
  _c313
  _c314
  _c315
  _c316
  _c317
  _c318
  _c319
  _c320
  _c321
  _c322
  _c323
  _c324
  _c325
  _c326
  _c327
  _c328
  _c329
  _c330
  _c331
  _c332
  _c333
  _c334
  _c335
  _c336
  _c337
  _c338
  _c339
  _c340
  _c341
  _c342
  _c343
  _c344
  _c345
  _c346
  _c347
  _c348
  _c349
  _c350
  _c351
  _c352
  _c353
  _c354
  _c355
  _c356
  _c357
  _c358
  _c359
  _c360
  _c361
  _c362
  _c363
  _c364
  _c365
  _c366
  _c367
  _c368
  _c369
  _c370
  _c371
  _c372
  _c373
  _c374
  _c375
  _c376
  _c377
  _c378
  _c379
  _c380
  _c381
  _c382
  _c383
  _c384
  _c385
  _c386
  _c387
  _c388
  _c389
  _c390
  _c391
  _c392
  _c393
  _c394
  _c395
  _c396
  _c397
  _c398
  _c399
  _c400
  _c401
  _c402
  _c403
  _c404
  _c405
  _c406
  _c407
  _c408
  _c409
  _c410
  _c411
  _c412
  _c413
  _c414
  _c415
  _c416
  _c417
  _c418
  _c419
  _c420
  _c421
  _c422
  _c423
  _c424
  _c425
  _c426
  _c427
  _c428
  _c429
  _c430
  _c431
  _c432
  _c433
  _c434
  _c435
  _c436
  _c437
  _c438
  _c439
  _c440
  _c441
  _c442
  _c492
  _c500
  _c501
  _c502
  _c503
  _c504
  _c505
  _c506
  _c507
  _c508
  _c509
  _c510
  _c513
  _c514
  _c515
  _c516
  _c520
  _c521
  _c522
  _c527
  _c528
  _c542
  _c543
  _c544
  _c545
  _c546
  _c547
  _c548
  _c549
  _c550
  _c551
  _c552
  _c553
  _c554
  _c555
  _c556
  _c557
  _c558
  _c559
  _c560
  _c561
  _c562
  _c563
  _c564
  _c565
  _c566
  _c567
  _c568
  _c569
  _c570
  _c571
  _c572
  _c573
  _c574
  _c575
  _c576
  _c577
  _c578
  _c579
  _c580
  _c581
  _c582
  _c583
  _c584
  _c585
  _c586
  _c587
  _c588
  _c589
  _c590
  _c605
  _c606
  _c607
  _c608
  _c609
  _c610
  _c611
  _c612
  _c613
  _c614
  _c615
  _c616
  _c617
  _c618
  _c619
  _c620
  _c621
  _c622
  _c623
  _c624
  _c625
  _c626
  _c627
  _c628
  _c629
  _c630
  _c631
  _c632
  _c633
  _c634
  _c635
  _c636
  _c637
  _c638
  _c639
  _c640
  _c641
  _c642
  _c643
  _c644
  _c645
  _c646
  _c647
  _c648
  _c649
  _c650
  _c651
  _c652
  _c653
  _c654
  _c655
  _c656
  _c657
  _c658
  _c659
  _c660
  _c661
  _c662
  _c663
  _c664
  _c665
  _c666
  _c667
  _c668
  _c669
  _c670
  _c671
  _c672
  _c673
  _c674
  _c675
  _c676
  _c677
  _c678
  _c679
  _c680
  _c681
  _c682
  _c683
  _c684
  _c685
  _c686
  _c687
  _c688
  _c689
  _c690
  _c691
  _c692
  _c693
  _c694
  _c695
  _c696
  _c697
  _c698
  _c699
  _c700
  _c701
  _c702
  _c703
  _c704
  _c705
  _c706
  _c707
  _c708
  _c709
  _c710
  _c711
  _c712
  _c713
  _c714
  _c715
  _c716
  _c717
  _c718
  _c719
  _c720
  _c721
  _c722
  _c723
  _c724
  _c725
  _c726
  _c727
  _c728
  _c729
  _c730
  _c731
  _c732
  _c733
  _c734
  _c735
  _c736
  _c737
  _c738
  _c739
  _c740
  _c741
  _c742
  _c743
  _c744
  _c745
  _c746
  _c747
  _c748
  _c749
  _c750
  _c751
  _c752
  _c753
  _c754
  _c755
  _c756
  _c757
  _c758
  _c759
  _c760
  _c761
  _c762
  _c763
  _c764
  _c765
  _c766
  _c767
  _c768
  _c769
  _c770
  _c771
  _c772
  _c773
  _c774
  _c775
  _c776
  _c777
  _c778
  _c779
  _c780
  _c781
  _c782
  _c783
  _c784
  _c785
  _c786
  _c787
  _c788
  _c789
  _c790
  _c791
  _c792
  _c793
  _c794
  _c795
  _c796
  _c797
  _c798
  _c799
  _c800
  _c801
  _c802
  _c803
  _c804
  _c805
  _c806
  _c807
  _c808
  _c809
  _c810
  _c811
  _c812
  _c813
  _c814
  _c815
  _c816
  _c817
  _c818
  _c819
  _c820
  _c821
  _c822
  _c823
  _c824
  _c825
  _c826
  _c827
  _c828
  _c829
  _c830
  _c831
  _c832
  _c833
  _c834
  _c835
  _c836
  _c837
  _c838
  _c839
  _c840
  _c841
  _c842
  _c843
  _c844
  _c845
  _c846
  _c847
  _c848
  _c849
  _c850
  _c851
  _c852
  _c853
  _c854
  _c855
  _c856
  _c857
  _c858
  _c859
  _c860
  _c861
  _c862
  _c863
  _c864
  _c865
  _c866
  _c867
  _c868
  _c869
  _c870
  _c871
  _c872
  _c873
  _c874
  _c875
  _c876
  _c877
  _c878
  _c879
  _c880
  _c881
  _c882
  _c883
  _c884
  _c885
  _c886
  _c887
  _c888
  _c889
  _c890
  _c891
  _c892
  _c893
  _c894
  _c895
  _c896
  _c897
  _c898
  _c899
  _c900
  _c901
  _c902
  _c903
  _c904
  _c905
  _c906
  _c907
  _c908
  _c909
  _c910
  _c911
  _c912
  _c913
  _c914
  _c915
  _c916
  _c917
  _c918
  _c919
  _c920
  _c921
  _c922
  _c923
  _c924
  _c925
  _c926
  _c927
  _c928
  _c929
  _c930
  _c931
  _c932
  _c933
  _c934
  _c935
  _c936
  _c937
  _c938
  _c939
  _c940
  _c941
  _c942
  _c943
  _c944
  _c945
  _c946
  _c947
  _c948
  _c949
  _c950
  _c951
  _c952
  _c953
  _c954
  _c955
  _c956
  _c957
  _c958
  _c959
  _c960
  _c961
  _c962
  _c963
  _c964
  _c965
  _c966
  _c967
  _c968
  _c969
  _c970
  _c971
  _c972
  _c973
  _c974
  _c975
  _c976
  _c977
  _c978
  _c979
  _c980
  _c981
  _c982
  _c983
  _c984
  _c985
  _c986
  _c987
  _c988
  _c989
  _c990 )
